Traveling Salesman Problem/TSP_generados/Aleatorio1621103914_18.tsp
NAME: Aleatorio1621103914_18.tsp
COMMENT: Randomly generated scenario
TYPE: TSP
DIMENSION: 18
EDGE_WEIGHT_TYPE: ATT
NODE_COORD_SECTION
1 9.98 33.79
2 37.17 25.59
3 8.29 14.4
4 0.08 31.59
5 48.19 35.49
6 4.75 6.37
7 22.82 48.56
8 1.97 48.76
9 11.12 1.27
10 11.48 37.17
11 42.79 26.45
12 46.87 29.42
13 38.65 39.3
14 3.65 37.76
15 25.69 40.5
16 5.83 20.75
17 32.29 29.31
18 25.34 9.89
