Traveling Salesman Problem/TSP_generados/Aleatorio1621103914_18.opt.tour
NAME: Aleatorio1621103914_18.opt.tour
COMMENT: Optimal solution for Aleatorio1621103914_18 (181.86499374211982)
TYPE: TOUR
DIMENSION: 18
TOUR_SECTION
1 4 16 3 6 9 18 17 2 11 12 5 13 15 7 8 14 10
-1
EOF
